output/production_planning.lp
\Generated by Cardinal Operations

Minimize
   360 s_orig_reg(1) + 360 s_orig_reg(2) + 360 s_orig_reg(3) 
   + 360 s_orig_reg(4) + 360 s_orig_reg(5) + 360 s_orig_reg(6) 
   + 360 s_orig_reg(7) + 360 s_orig_reg(8) + 540 s_orig_ot(1) 
   + 540 s_orig_ot(2) + 540 s_orig_ot(3) + 540 s_orig_ot(4) 
   + 540 s_orig_ot(5) + 540 s_orig_ot(6) + 540 s_orig_ot(7) 
   + 540 s_orig_ot(8) + 240 s_new_reg(1) + 240 s_new_reg(2) 
   + 240 s_new_reg(3) + 240 s_new_reg(4) + 240 s_new_reg(5) 
   + 240 s_new_reg(6) + 240 s_new_reg(7) + 240 s_new_reg(8) 
   + 540 s_new_ot(1) + 540 s_new_ot(2) + 540 s_new_ot(3) + 540 s_new_ot(4) 
   + 540 s_new_ot(5) + 540 s_new_ot(6) + 540 s_new_ot(7) + 540 s_new_ot(8) 
   + 720 T_orig(1) + 720 T_orig(2) + 720 T_orig(3) + 720 T_orig(4) 
   + 720 T_orig(5) + 720 T_orig(6) + 720 T_orig(7) + 360 T_orig(8) 
   + 480 T_new(1) + 480 T_new(2) + 480 T_new(3) + 480 T_new(4) 
   + 480 T_new(5) + 480 T_new(6) + 480 T_new(7) + 240 T_new(8) 
   + 240 n_start(1) + 240 n_start(2) + 240 n_start(3) + 240 n_start(4) 
   + 240 n_start(5) + 240 n_start(6) + 240 n_start(7) + 120 n_start(8) 
   + 0.5 B(I,1) + 0.5 B(I,2) + 0.5 B(I,3) + 0.5 B(I,4) + 0.5 B(I,5) 
   + 0.5 B(I,6) + 0.5 B(I,7) + 0.5 B(I,8) + 0.6 B(II,1) + 0.6 B(II,2) 
   + 0.6 B(II,3) + 0.6 B(II,4) + 0.6 B(II,5) + 0.6 B(II,6) + 0.6 B(II,7) 
   + 0.6 B(II,8) 
Subject To
 workforce_conservation_orig_1: s_orig_reg(1) + s_orig_ot(1) + T_orig(1) 
   = 50
 workforce_conservation_new_1: s_new_reg(1) + s_new_ot(1) + T_new(1) 
   - S_new_avail(1) = 0
 workforce_conservation_orig_2: s_orig_reg(2) + s_orig_ot(2) + T_orig(2) 
   + T_orig(1) = 50
 workforce_conservation_new_2: s_new_reg(2) + s_new_ot(2) + T_new(2) 
   + T_new(1) - S_new_avail(2) = 0
 workforce_conservation_orig_3: s_orig_reg(3) + s_orig_ot(3) + T_orig(3) 
   + T_orig(2) = 50
 workforce_conservation_new_3: s_new_reg(3) + s_new_ot(3) + T_new(3) 
   + T_new(2) - S_new_avail(3) = 0
 workforce_conservation_orig_4: s_orig_reg(4) + s_orig_ot(4) + T_orig(4) 
   + T_orig(3) = 50
 workforce_conservation_new_4: s_new_reg(4) + s_new_ot(4) + T_new(4) 
   + T_new(3) - S_new_avail(4) = 0
 workforce_conservation_orig_5: s_orig_reg(5) + s_orig_ot(5) + T_orig(5) 
   + T_orig(4) = 50
 workforce_conservation_new_5: s_new_reg(5) + s_new_ot(5) + T_new(5) 
   + T_new(4) - S_new_avail(5) = 0
 workforce_conservation_orig_6: s_orig_reg(6) + s_orig_ot(6) + T_orig(6) 
   + T_orig(5) = 50
 workforce_conservation_new_6: s_new_reg(6) + s_new_ot(6) + T_new(6) 
   + T_new(5) - S_new_avail(6) = 0
 workforce_conservation_orig_7: s_orig_reg(7) + s_orig_ot(7) + T_orig(7) 
   + T_orig(6) = 50
 workforce_conservation_new_7: s_new_reg(7) + s_new_ot(7) + T_new(7) 
   + T_new(6) - S_new_avail(7) = 0
 workforce_conservation_orig_8: s_orig_reg(8) + s_orig_ot(8) + T_orig(8) 
   + T_orig(7) = 50
 workforce_conservation_new_8: s_new_reg(8) + s_new_ot(8) + T_new(8) 
   + T_new(7) - S_new_avail(8) = 0
 workforce_dynamics_1: S_new_avail(1) = 0
 workforce_dynamics_2: S_new_avail(2) - S_new_avail(1) = 0
 workforce_dynamics_3: - S_new_avail(2) - n_start(1) + S_new_avail(3) = 0
 workforce_dynamics_4: - S_new_avail(3) - n_start(2) + S_new_avail(4) = 0
 workforce_dynamics_5: - S_new_avail(4) - n_start(3) + S_new_avail(5) = 0
 workforce_dynamics_6: - S_new_avail(5) - n_start(4) + S_new_avail(6) = 0
 workforce_dynamics_7: - S_new_avail(6) - n_start(5) + S_new_avail(7) = 0
 workforce_dynamics_8: - S_new_avail(7) - n_start(6) + S_new_avail(8) = 0
 training_capacity_1: - 3 T_orig(1) - 3 T_new(1) + n_start(1) <= 0
 training_capacity_2: - 3 T_orig(2) - 3 T_new(2) + n_start(2) <= 0
 training_capacity_3: - 3 T_orig(3) - 3 T_new(3) + n_start(3) <= 0
 training_capacity_4: - 3 T_orig(4) - 3 T_new(4) + n_start(4) <= 0
 training_capacity_5: - 3 T_orig(5) - 3 T_new(5) + n_start(5) <= 0
 training_capacity_6: - 3 T_orig(6) - 3 T_new(6) + n_start(6) <= 0
 training_capacity_7: - 3 T_orig(7) - 3 T_new(7) + n_start(7) <= 0
 training_capacity_8: - 3 T_orig(8) - 3 T_new(8) + n_start(8) <= 0
 total_training_target: n_start(1) + n_start(2) + n_start(3) + n_start(4) 
   + n_start(5) + n_start(6) + n_start(7) = 50
 production_capacity_1: 0.1 X(I,1) + 0.1666666666666667 X(II,1) 
   - 40 s_orig_reg(1) - 40 s_new_reg(1) - 60 s_orig_ot(1) - 60 s_new_ot(1) 
   <= 0
 production_capacity_2: 0.1 X(I,2) + 0.1666666666666667 X(II,2) 
   - 40 s_orig_reg(2) - 40 s_new_reg(2) - 60 s_orig_ot(2) - 60 s_new_ot(2) 
   <= 0
 production_capacity_3: 0.1 X(I,3) + 0.1666666666666667 X(II,3) 
   - 40 s_orig_reg(3) - 40 s_new_reg(3) - 60 s_orig_ot(3) - 60 s_new_ot(3) 
   <= 0
 production_capacity_4: 0.1 X(I,4) + 0.1666666666666667 X(II,4) 
   - 40 s_orig_reg(4) - 40 s_new_reg(4) - 60 s_orig_ot(4) - 60 s_new_ot(4) 
   <= 0
 production_capacity_5: 0.1 X(I,5) + 0.1666666666666667 X(II,5) 
   - 40 s_orig_reg(5) - 40 s_new_reg(5) - 60 s_orig_ot(5) - 60 s_new_ot(5) 
   <= 0
 production_capacity_6: 0.1 X(I,6) + 0.1666666666666667 X(II,6) 
   - 40 s_orig_reg(6) - 40 s_new_reg(6) - 60 s_orig_ot(6) - 60 s_new_ot(6) 
   <= 0
 production_capacity_7: 0.1 X(I,7) + 0.1666666666666667 X(II,7) 
   - 40 s_orig_reg(7) - 40 s_new_reg(7) - 60 s_orig_ot(7) - 60 s_new_ot(7) 
   <= 0
 production_capacity_8: 0.1 X(I,8) + 0.1666666666666667 X(II,8) 
   - 40 s_orig_reg(8) - 40 s_new_reg(8) - 60 s_orig_ot(8) - 60 s_new_ot(8) 
   <= 0
 backlog_balance_I_1: X(I,1) + B(I,1) = 10000
 backlog_balance_I_2: - B(I,1) + X(I,2) + B(I,2) = 10000
 backlog_balance_I_3: - B(I,2) + X(I,3) + B(I,3) = 12000
 backlog_balance_I_4: - B(I,3) + X(I,4) + B(I,4) = 12000
 backlog_balance_I_5: - B(I,4) + X(I,5) + B(I,5) = 16000
 backlog_balance_I_6: - B(I,5) + X(I,6) + B(I,6) = 16000
 backlog_balance_I_7: - B(I,6) + X(I,7) + B(I,7) = 20000
 backlog_balance_I_8: - B(I,7) + X(I,8) + B(I,8) = 20000
 backlog_balance_II_1: X(II,1) + B(II,1) = 6000
 backlog_balance_II_2: - B(II,1) + X(II,2) + B(II,2) = 7200
 backlog_balance_II_3: - B(II,2) + X(II,3) + B(II,3) = 8400
 backlog_balance_II_4: - B(II,3) + X(II,4) + B(II,4) = 10800
 backlog_balance_II_5: - B(II,4) + X(II,5) + B(II,5) = 10800
 backlog_balance_II_6: - B(II,5) + X(II,6) + B(II,6) = 12000
 backlog_balance_II_7: - B(II,6) + X(II,7) + B(II,7) = 12000
 backlog_balance_II_8: - B(II,7) + X(II,8) + B(II,8) = 12000
Generals
 s_orig_reg(1)  s_orig_reg(2)  s_orig_reg(3)  s_orig_reg(4)  s_orig_reg(5)  
 s_orig_reg(6)  s_orig_reg(7)  s_orig_reg(8)  s_orig_ot(1)  s_orig_ot(2)  
 s_orig_ot(3)  s_orig_ot(4)  s_orig_ot(5)  s_orig_ot(6)  s_orig_ot(7)  
 s_orig_ot(8)  s_new_reg(1)  s_new_reg(2)  s_new_reg(3)  s_new_reg(4)  
 s_new_reg(5)  s_new_reg(6)  s_new_reg(7)  s_new_reg(8)  s_new_ot(1)  
 s_new_ot(2)  s_new_ot(3)  s_new_ot(4)  s_new_ot(5)  s_new_ot(6)  
 s_new_ot(7)  s_new_ot(8)  T_orig(1)  T_orig(2)  T_orig(3)  T_orig(4)  
 T_orig(5)  T_orig(6)  T_orig(7)  T_orig(8)  T_new(1)  T_new(2)  T_new(3)  
 T_new(4)  T_new(5)  T_new(6)  T_new(7)  T_new(8)  n_start(1)  n_start(2)  
 n_start(3)  n_start(4)  n_start(5)  n_start(6)  n_start(7)  n_start(8)  
END

