output/production_planning.sol
# Objective value 219144
s_orig_reg(1)   29
s_orig_reg(2)   15
s_orig_reg(3)   45
s_orig_reg(4)   42
s_orig_reg(5)   49
s_orig_reg(6)   48.000000000000078
s_orig_reg(7)   46
s_orig_reg(8)   46
s_orig_ot(1)    14
s_orig_ot(2)    26
s_orig_ot(3)    0
s_orig_ot(4)    4
s_orig_ot(5)    0
s_orig_ot(6)    1.9999999999999198
s_orig_ot(7)    0
s_orig_ot(8)    0
s_new_reg(1)    0
s_new_reg(2)    0
s_new_reg(3)    21
s_new_reg(4)    27
s_new_reg(5)    36
s_new_reg(6)    39
s_new_reg(7)    39
s_new_reg(8)    39
s_new_ot(1)     0
s_new_ot(2)     0
s_new_ot(3)     0
s_new_ot(4)     0
s_new_ot(5)     0
s_new_ot(6)     0
s_new_ot(7)     0
s_new_ot(8)     0
T_orig(1)       7
T_orig(2)       2
T_orig(3)       3
T_orig(4)       1
T_orig(5)       0
T_orig(6)       0
T_orig(7)       4
T_orig(8)       0
T_new(1)        0
T_new(2)        0
T_new(3)        0
T_new(4)        0
T_new(5)        0
T_new(6)        0
T_new(7)        0
T_new(8)        0
n_start(1)      21
n_start(2)      6
n_start(3)      9
n_start(4)      3
n_start(5)      0
n_start(6)      0
n_start(7)      11
n_start(8)      0
S_new_avail(1)  0
S_new_avail(2)  0
S_new_avail(3)  21
S_new_avail(4)  27
S_new_avail(5)  36
S_new_avail(6)  39
S_new_avail(7)  39
S_new_avail(8)  39
X(I,1)          10000
X(I,2)          10000
X(I,3)          12000
X(I,4)          12000
X(I,5)          16000
X(I,6)          16000
X(I,7)          20000
X(I,8)          20000
X(II,1)         6000
X(II,2)         6960
X(II,3)         8640
X(II,4)         10800
X(II,5)         10800
X(II,6)         12000
X(II,7)         8400
X(II,8)         8400
B(I,1)          0
B(I,2)          0
B(I,3)          0
B(I,4)          0
B(I,5)          0
B(I,6)          0
B(I,7)          0
B(I,8)          0
B(II,1)         0
B(II,2)         240
B(II,3)         0
B(II,4)         0
B(II,5)         0
B(II,6)         0
B(II,7)         3600
B(II,8)         7200
